28  28  28  28  -1  
30  30  30  30  -1  
22  22  22  22  -1  
23  23  23  23  -1  
16  16  16  16  -1  
25  25  25  25  -1  
22  22  22  22  -1  
26  26  26  26  -1  
37  37  37  37  -1  
20  20  20  20  -1  
27  27  27  27  -1  
15  15  15  15  -1  
21  21  21  21  -1  
28  28  28  28  -1  
29  29  29  29  -1  
